qbf_easy_train/easy_1168_SAT.qdimacs
p cnf 21 53
a 4 13 15 0
e 1 2 3 5 6 7 8 9 10 11 12 14 16 17 18 19 20 21 0
-1 -2 -3 0
1 2 -3 0
-1 2 3 0
1 -2 3 0
-4 2 -5 0
4 -2 -5 0
-4 -2 5 0
4 2 5 0
-6 -3 0
-6 -5 0
3 5 6 0
-9 7 0
-9 8 0
-7 -8 9 0
2 9 -10 0
-2 -9 -10 0
2 -9 10 0
-2 9 10 0
2 10 -11 0
-2 -10 -11 0
2 -10 11 0
-2 10 11 0
13 11 0
13 12 0
-11 -12 -13 0
16 9 0
16 15 0
-9 -15 -16 0
-14 -16 -17 0
14 16 -17 0
-14 16 17 0
14 -16 17 0
-1 7 -18 0
1 -7 -18 0
-1 -7 18 0
1 7 18 0
17 -18 -19 0
-17 18 -19 0
17 18 19 0
-17 -18 19 0
13 -19 -20 0
-13 19 -20 0
13 19 20 0
-13 -19 20 0
-21 6 0
-21 -20 0
-6 20 21 0
1 -20 -3 -15 -19 5 0
-21 -7 -8 -9 -5 18 11 0
-14 -7 -4 12 -3 0
-20 -3 -11 0
10 16 6 -9 -1 -17 -15 0
21 0
