sat_easy_train/easy_1168_SAT.dimacs
p cnf 100 323
-1 -2 -3 0
1 2 -3 0
-1 2 3 0
1 -2 3 0
6 2 0
6 5 0
-2 -5 -6 0
4 -6 -7 0
-4 6 -7 0
4 6 7 0
-4 -6 7 0
-10 9 0
-10 2 0
-9 -2 10 0
11 8 0
11 10 0
-8 -10 -11 0
-11 -12 -13 0
11 12 -13 0
-11 12 13 0
11 -12 13 0
-16 -6 0
-16 -15 0
6 15 16 0
-11 16 -17 0
11 -16 -17 0
-11 -16 17 0
11 16 17 0
-18 14 0
-18 -17 0
-14 17 18 0
-19 13 0
-19 -18 0
-13 18 19 0
7 -19 -20 0
-7 19 -20 0
7 19 20 0
-7 -19 20 0
3 20 -21 0
-3 -20 -21 0
3 -20 21 0
-3 20 21 0
-23 22 0
-23 -8 0
-22 8 23 0
25 23 0
25 -24 0
-23 24 -25 0
23 8 -26 0
-23 -8 -26 0
23 -8 26 0
-23 8 26 0
-28 27 0
-28 27 0
-27 28 0
29 9 0
29 28 0
-9 -28 -29 0
-30 -26 0
-30 29 0
26 -29 30 0
-25 -30 -31 0
25 30 -31 0
-25 30 31 0
25 -30 31 0
27 9 -32 0
-27 -9 -32 0
27 -9 32 0
-27 9 32 0
-33 -5 0
-33 -32 0
5 32 33 0
-34 2 0
-34 9 0
-2 -9 34 0
-35 -22 0
-35 34 0
22 -34 35 0
36 -33 0
36 -35 0
33 35 -36 0
-37 31 0
-37 36 0
-31 -36 37 0
27 38 -39 0
-27 -38 -39 0
27 -38 39 0
-27 38 39 0
39 10 -40 0
-39 -10 -40 0
39 -10 40 0
-39 10 40 0
-37 40 -41 0
37 -40 -41 0
-37 -40 41 0
37 40 41 0
-42 -21 0
-42 -41 0
21 41 42 0
-43 -23 0
-43 -22 0
23 22 43 0
44 4 0
44 -43 0
-4 43 -44 0
-45 46 -47 0
45 -46 -47 0
-45 -46 47 0
45 46 47 0
47 24 -48 0
-47 -24 -48 0
47 -24 48 0
-47 24 48 0
-49 48 0
-49 -25 0
-48 25 49 0
-44 49 -50 0
44 -49 -50 0
-44 -49 50 0
44 49 50 0
51 9 0
51 -17 0
-9 17 -51 0
52 -1 0
52 1 0
53 52 0
53 -8 0
-52 8 -53 0
-54 -5 0
-54 -10 0
5 10 54 0
55 53 0
55 -54 0
-53 54 -55 0
56 51 0
56 55 0
-51 -55 -56 0
-57 2 0
-57 -9 0
-2 9 57 0
23 -57 -58 0
-23 57 -58 0
23 57 58 0
-23 -57 58 0
58 25 -59 0
-58 -25 -59 0
58 -25 59 0
-58 25 59 0
56 -59 -60 0
-56 59 -60 0
56 59 60 0
-56 -59 60 0
-61 -4 0
-61 -23 0
4 23 61 0
-62 -4 0
-62 -61 0
4 61 62 0
63 60 0
63 62 0
-60 -62 -63 0
64 -50 0
64 -63 0
50 63 -64 0
65 -42 0
65 64 0
42 -64 -65 0
-66 -2 0
-66 45 0
2 -45 66 0
67 -66 0
67 -8 0
66 8 -67 0
22 -67 -68 0
-22 67 -68 0
22 67 68 0
-22 -67 68 0
-69 -48 0
-69 68 0
48 -68 69 0
-10 -61 -70 0
10 61 -70 0
-10 61 70 0
10 -61 70 0
71 -70 0
71 29 0
70 -29 -71 0
72 69 0
72 71 0
-69 -71 -72 0
35 -73 -74 0
-35 73 -74 0
35 73 74 0
-35 -73 74 0
75 72 0
75 74 0
-72 -74 -75 0
76 15 0
76 46 0
-15 -46 -76 0
77 -76 0
77 -39 0
76 39 -77 0
-66 -23 -78 0
66 23 -78 0
-66 23 78 0
66 -23 78 0
79 -77 0
79 78 0
77 -78 -79 0
-23 -4 -80 0
23 4 -80 0
-23 4 80 0
23 -4 80 0
81 -80 0
81 5 0
80 -5 -81 0
-82 27 0
-82 -81 0
-27 81 82 0
-83 79 0
-83 -82 0
-79 82 83 0
-84 43 0
-84 -24 0
-43 24 84 0
-15 84 -85 0
15 -84 -85 0
-15 -84 85 0
15 84 85 0
-83 85 -86 0
83 -85 -86 0
-83 -85 86 0
83 85 86 0
-52 2 -87 0
52 -2 -87 0
-52 -2 87 0
52 2 87 0
88 -87 0
88 -29 0
87 29 -88 0
89 -66 0
89 48 0
66 -48 -89 0
88 89 -90 0
-88 -89 -90 0
88 -89 90 0
-88 89 90 0
-91 86 0
-91 -90 0
-86 90 91 0
92 2 0
92 -39 0
-2 39 -92 0
-93 84 0
-93 -92 0
-84 92 93 0
-94 91 0
-94 -93 0
-91 93 94 0
-95 45 0
-95 -32 0
-45 32 95 0
-96 -16 0
-96 -11 0
16 11 96 0
-95 96 -97 0
95 -96 -97 0
-95 -96 97 0
95 96 97 0
-94 97 -98 0
94 -97 -98 0
-94 -97 98 0
94 97 98 0
99 75 0
99 98 0
-75 -98 -99 0
-100 -65 0
-100 -99 0
65 99 100 0
-7 46 69 -99 -65 0
1 49 0
-15 -51 -27 53 -94 0
-44 19 0
-27 -82 88 96 0
-50 93 18 -42 4 0
-35 48 -8 0
-19 45 59 0
79 -4 31 -91 -29 0
-33 56 49 0
-99 57 20 -12 24 0
92 -46 0
-30 -98 -54 9 97 12 0
-32 9 -45 0
85 -41 -5 38 -67 0
-71 -5 -87 58 -41 0
-66 9 -35 -54 24 95 0
-78 -67 -95 -53 -50 -99 0
92 14 -34 0
1 -19 65 -56 -41 0
-10 -94 -52 -64 -40 25 0
-8 -43 0
-36 -46 -35 0
27 -40 0
-31 39 -96 -63 13 100 0
-96 99 -16 -10 41 -58 0
73 24 48 -14 89 0
-51 -76 -68 -10 -21 72 0
-92 19 -81 97 -91 0
92 79 -78 0
80 71 11 92 0
-33 97 72 -47 0
22 -95 -71 0
-41 -73 87 0
-44 14 15 -26 0
7 44 0
-62 -17 64 0
-71 16 97 0
-61 73 -71 -58 0
6 -56 0
-5 68 -33 45 96 0
48 23 90 0
100 0
